CRN/ToyCRN/toy.crn.smt2
; benchmark generated from rust API
(set-info :status unknown)
(declare-fun S3@60 () (_ BitVec 16))
(declare-fun S3@59 () (_ BitVec 16))
(declare-fun S2@59 () (_ BitVec 16))
(declare-fun S2@60 () (_ BitVec 16))
(declare-fun S1@59 () (_ BitVec 16))
(declare-fun S1@60 () (_ BitVec 16))
(declare-fun S3@58 () (_ BitVec 16))
(declare-fun S2@58 () (_ BitVec 16))
(declare-fun S1@58 () (_ BitVec 16))
(declare-fun S3@57 () (_ BitVec 16))
(declare-fun S2@57 () (_ BitVec 16))
(declare-fun S1@57 () (_ BitVec 16))
(declare-fun S3@56 () (_ BitVec 16))
(declare-fun S2@56 () (_ BitVec 16))
(declare-fun S1@56 () (_ BitVec 16))
(declare-fun S3@55 () (_ BitVec 16))
(declare-fun S2@55 () (_ BitVec 16))
(declare-fun S1@55 () (_ BitVec 16))
(declare-fun S3@54 () (_ BitVec 16))
(declare-fun S2@54 () (_ BitVec 16))
(declare-fun S1@54 () (_ BitVec 16))
(declare-fun S3@53 () (_ BitVec 16))
(declare-fun S2@53 () (_ BitVec 16))
(declare-fun S1@53 () (_ BitVec 16))
(declare-fun S3@52 () (_ BitVec 16))
(declare-fun S2@52 () (_ BitVec 16))
(declare-fun S1@52 () (_ BitVec 16))
(declare-fun S3@51 () (_ BitVec 16))
(declare-fun S2@51 () (_ BitVec 16))
(declare-fun S1@51 () (_ BitVec 16))
(declare-fun S3@50 () (_ BitVec 16))
(declare-fun S2@50 () (_ BitVec 16))
(declare-fun S1@50 () (_ BitVec 16))
(declare-fun S3@49 () (_ BitVec 16))
(declare-fun S2@49 () (_ BitVec 16))
(declare-fun S1@49 () (_ BitVec 16))
(declare-fun S3@48 () (_ BitVec 16))
(declare-fun S2@48 () (_ BitVec 16))
(declare-fun S1@48 () (_ BitVec 16))
(declare-fun S3@47 () (_ BitVec 16))
(declare-fun S2@47 () (_ BitVec 16))
(declare-fun S1@47 () (_ BitVec 16))
(declare-fun S3@46 () (_ BitVec 16))
(declare-fun S2@46 () (_ BitVec 16))
(declare-fun S1@46 () (_ BitVec 16))
(declare-fun S3@45 () (_ BitVec 16))
(declare-fun S2@45 () (_ BitVec 16))
(declare-fun S1@45 () (_ BitVec 16))
(declare-fun S3@44 () (_ BitVec 16))
(declare-fun S2@44 () (_ BitVec 16))
(declare-fun S1@44 () (_ BitVec 16))
(declare-fun S3@43 () (_ BitVec 16))
(declare-fun S2@43 () (_ BitVec 16))
(declare-fun S1@43 () (_ BitVec 16))
(declare-fun S3@42 () (_ BitVec 16))
(declare-fun S2@42 () (_ BitVec 16))
(declare-fun S1@42 () (_ BitVec 16))
(declare-fun S3@41 () (_ BitVec 16))
(declare-fun S2@41 () (_ BitVec 16))
(declare-fun S1@41 () (_ BitVec 16))
(declare-fun S3@40 () (_ BitVec 16))
(declare-fun S2@40 () (_ BitVec 16))
(declare-fun S1@40 () (_ BitVec 16))
(declare-fun S3@39 () (_ BitVec 16))
(declare-fun S2@39 () (_ BitVec 16))
(declare-fun S1@39 () (_ BitVec 16))
(declare-fun S3@38 () (_ BitVec 16))
(declare-fun S2@38 () (_ BitVec 16))
(declare-fun S1@38 () (_ BitVec 16))
(declare-fun S3@37 () (_ BitVec 16))
(declare-fun S2@37 () (_ BitVec 16))
(declare-fun S1@37 () (_ BitVec 16))
(declare-fun S3@36 () (_ BitVec 16))
(declare-fun S2@36 () (_ BitVec 16))
(declare-fun S1@36 () (_ BitVec 16))
(declare-fun S3@35 () (_ BitVec 16))
(declare-fun S2@35 () (_ BitVec 16))
(declare-fun S1@35 () (_ BitVec 16))
(declare-fun S3@34 () (_ BitVec 16))
(declare-fun S2@34 () (_ BitVec 16))
(declare-fun S1@34 () (_ BitVec 16))
(declare-fun S3@33 () (_ BitVec 16))
(declare-fun S2@33 () (_ BitVec 16))
(declare-fun S1@33 () (_ BitVec 16))
(declare-fun S3@32 () (_ BitVec 16))
(declare-fun S2@32 () (_ BitVec 16))
(declare-fun S1@32 () (_ BitVec 16))
(declare-fun S3@31 () (_ BitVec 16))
(declare-fun S2@31 () (_ BitVec 16))
(declare-fun S1@31 () (_ BitVec 16))
(declare-fun S3@30 () (_ BitVec 16))
(declare-fun S2@30 () (_ BitVec 16))
(declare-fun S1@30 () (_ BitVec 16))
(declare-fun S3@29 () (_ BitVec 16))
(declare-fun S2@29 () (_ BitVec 16))
(declare-fun S1@29 () (_ BitVec 16))
(declare-fun S3@28 () (_ BitVec 16))
(declare-fun S2@28 () (_ BitVec 16))
(declare-fun S1@28 () (_ BitVec 16))
(declare-fun S3@27 () (_ BitVec 16))
(declare-fun S2@27 () (_ BitVec 16))
(declare-fun S1@27 () (_ BitVec 16))
(declare-fun S3@26 () (_ BitVec 16))
(declare-fun S2@26 () (_ BitVec 16))
(declare-fun S1@26 () (_ BitVec 16))
(declare-fun S3@25 () (_ BitVec 16))
(declare-fun S2@25 () (_ BitVec 16))
(declare-fun S1@25 () (_ BitVec 16))
(declare-fun S3@24 () (_ BitVec 16))
(declare-fun S2@24 () (_ BitVec 16))
(declare-fun S1@24 () (_ BitVec 16))
(declare-fun S3@23 () (_ BitVec 16))
(declare-fun S2@23 () (_ BitVec 16))
(declare-fun S1@23 () (_ BitVec 16))
(declare-fun S3@22 () (_ BitVec 16))
(declare-fun S2@22 () (_ BitVec 16))
(declare-fun S1@22 () (_ BitVec 16))
(declare-fun S3@21 () (_ BitVec 16))
(declare-fun S2@21 () (_ BitVec 16))
(declare-fun S1@21 () (_ BitVec 16))
(declare-fun S3@20 () (_ BitVec 16))
(declare-fun S2@20 () (_ BitVec 16))
(declare-fun S1@20 () (_ BitVec 16))
(declare-fun S3@19 () (_ BitVec 16))
(declare-fun S2@19 () (_ BitVec 16))
(declare-fun S1@19 () (_ BitVec 16))
(declare-fun S3@18 () (_ BitVec 16))
(declare-fun S2@18 () (_ BitVec 16))
(declare-fun S1@18 () (_ BitVec 16))
(declare-fun S3@17 () (_ BitVec 16))
(declare-fun S2@17 () (_ BitVec 16))
(declare-fun S1@17 () (_ BitVec 16))
(declare-fun S3@16 () (_ BitVec 16))
(declare-fun S2@16 () (_ BitVec 16))
(declare-fun S1@16 () (_ BitVec 16))
(declare-fun S3@15 () (_ BitVec 16))
(declare-fun S2@15 () (_ BitVec 16))
(declare-fun S1@15 () (_ BitVec 16))
(declare-fun S3@14 () (_ BitVec 16))
(declare-fun S2@14 () (_ BitVec 16))
(declare-fun S1@14 () (_ BitVec 16))
(declare-fun S3@13 () (_ BitVec 16))
(declare-fun S2@13 () (_ BitVec 16))
(declare-fun S1@13 () (_ BitVec 16))
(declare-fun S3@12 () (_ BitVec 16))
(declare-fun S2@12 () (_ BitVec 16))
(declare-fun S1@12 () (_ BitVec 16))
(declare-fun S3@11 () (_ BitVec 16))
(declare-fun S2@11 () (_ BitVec 16))
(declare-fun S1@11 () (_ BitVec 16))
(declare-fun S3@10 () (_ BitVec 16))
(declare-fun S2@10 () (_ BitVec 16))
(declare-fun S1@10 () (_ BitVec 16))
(declare-fun S3@9 () (_ BitVec 16))
(declare-fun S2@9 () (_ BitVec 16))
(declare-fun S1@9 () (_ BitVec 16))
(declare-fun S3@8 () (_ BitVec 16))
(declare-fun S2@8 () (_ BitVec 16))
(declare-fun S1@8 () (_ BitVec 16))
(declare-fun S3@7 () (_ BitVec 16))
(declare-fun S2@7 () (_ BitVec 16))
(declare-fun S1@7 () (_ BitVec 16))
(declare-fun S3@6 () (_ BitVec 16))
(declare-fun S2@6 () (_ BitVec 16))
(declare-fun S1@6 () (_ BitVec 16))
(declare-fun S3@5 () (_ BitVec 16))
(declare-fun S2@5 () (_ BitVec 16))
(declare-fun S1@5 () (_ BitVec 16))
(declare-fun S3@4 () (_ BitVec 16))
(declare-fun S2@4 () (_ BitVec 16))
(declare-fun S1@4 () (_ BitVec 16))
(declare-fun S3@3 () (_ BitVec 16))
(declare-fun S2@3 () (_ BitVec 16))
(declare-fun S1@3 () (_ BitVec 16))
(declare-fun S3@2 () (_ BitVec 16))
(declare-fun S2@2 () (_ BitVec 16))
(declare-fun S1@2 () (_ BitVec 16))
(declare-fun S3@1 () (_ BitVec 16))
(declare-fun S2@1 () (_ BitVec 16))
(declare-fun S1@1 () (_ BitVec 16))
(declare-fun S3@0 () (_ BitVec 16))
(declare-fun S2@0 () (_ BitVec 16))
(declare-fun S1@0 () (_ BitVec 16))
(assert
 (let (($x1190 (= S3@60 (_ bv350 16))))
(let (($x1173 (= S2@60 S2@59)))
(let (($x1177 (and (bvuge S1@59 (_ bv1 16)) (= S1@60 (bvsub S1@59 (_ bv65535 16))) $x1173 (= S3@60 (bvadd S3@59 (_ bv1 16))))))
(let (($x1178 (= S3@60 S3@59)))
(let (($x1184 (and (bvuge S1@59 (_ bv10 16)) (= S1@60 (bvsub S1@59 (_ bv65526 16))) (= S2@60 (bvadd S2@59 (_ bv3 16))) $x1178)))
(let (($x1154 (= S2@59 S2@58)))
(let (($x1158 (and (bvuge S1@58 (_ bv1 16)) (= S1@59 (bvsub S1@58 (_ bv65535 16))) $x1154 (= S3@59 (bvadd S3@58 (_ bv1 16))))))
(let (($x1159 (= S3@59 S3@58)))
(let (($x1165 (and (bvuge S1@58 (_ bv10 16)) (= S1@59 (bvsub S1@58 (_ bv65526 16))) (= S2@59 (bvadd S2@58 (_ bv3 16))) $x1159)))
(let (($x1135 (= S2@58 S2@57)))
(let (($x1139 (and (bvuge S1@57 (_ bv1 16)) (= S1@58 (bvsub S1@57 (_ bv65535 16))) $x1135 (= S3@58 (bvadd S3@57 (_ bv1 16))))))
(let (($x1140 (= S3@58 S3@57)))
(let (($x1146 (and (bvuge S1@57 (_ bv10 16)) (= S1@58 (bvsub S1@57 (_ bv65526 16))) (= S2@58 (bvadd S2@57 (_ bv3 16))) $x1140)))
(let (($x1116 (= S2@57 S2@56)))
(let (($x1120 (and (bvuge S1@56 (_ bv1 16)) (= S1@57 (bvsub S1@56 (_ bv65535 16))) $x1116 (= S3@57 (bvadd S3@56 (_ bv1 16))))))
(let (($x1121 (= S3@57 S3@56)))
(let (($x1127 (and (bvuge S1@56 (_ bv10 16)) (= S1@57 (bvsub S1@56 (_ bv65526 16))) (= S2@57 (bvadd S2@56 (_ bv3 16))) $x1121)))
(let (($x1097 (= S2@56 S2@55)))
(let (($x1101 (and (bvuge S1@55 (_ bv1 16)) (= S1@56 (bvsub S1@55 (_ bv65535 16))) $x1097 (= S3@56 (bvadd S3@55 (_ bv1 16))))))
(let (($x1102 (= S3@56 S3@55)))
(let (($x1108 (and (bvuge S1@55 (_ bv10 16)) (= S1@56 (bvsub S1@55 (_ bv65526 16))) (= S2@56 (bvadd S2@55 (_ bv3 16))) $x1102)))
(let (($x1078 (= S2@55 S2@54)))
(let (($x1082 (and (bvuge S1@54 (_ bv1 16)) (= S1@55 (bvsub S1@54 (_ bv65535 16))) $x1078 (= S3@55 (bvadd S3@54 (_ bv1 16))))))
(let (($x1083 (= S3@55 S3@54)))
(let (($x1089 (and (bvuge S1@54 (_ bv10 16)) (= S1@55 (bvsub S1@54 (_ bv65526 16))) (= S2@55 (bvadd S2@54 (_ bv3 16))) $x1083)))
(let (($x1059 (= S2@54 S2@53)))
(let (($x1063 (and (bvuge S1@53 (_ bv1 16)) (= S1@54 (bvsub S1@53 (_ bv65535 16))) $x1059 (= S3@54 (bvadd S3@53 (_ bv1 16))))))
(let (($x1064 (= S3@54 S3@53)))
(let (($x1070 (and (bvuge S1@53 (_ bv10 16)) (= S1@54 (bvsub S1@53 (_ bv65526 16))) (= S2@54 (bvadd S2@53 (_ bv3 16))) $x1064)))
(let (($x1040 (= S2@53 S2@52)))
(let (($x1044 (and (bvuge S1@52 (_ bv1 16)) (= S1@53 (bvsub S1@52 (_ bv65535 16))) $x1040 (= S3@53 (bvadd S3@52 (_ bv1 16))))))
(let (($x1045 (= S3@53 S3@52)))
(let (($x1051 (and (bvuge S1@52 (_ bv10 16)) (= S1@53 (bvsub S1@52 (_ bv65526 16))) (= S2@53 (bvadd S2@52 (_ bv3 16))) $x1045)))
(let (($x1021 (= S2@52 S2@51)))
(let (($x1025 (and (bvuge S1@51 (_ bv1 16)) (= S1@52 (bvsub S1@51 (_ bv65535 16))) $x1021 (= S3@52 (bvadd S3@51 (_ bv1 16))))))
(let (($x1026 (= S3@52 S3@51)))
(let (($x1032 (and (bvuge S1@51 (_ bv10 16)) (= S1@52 (bvsub S1@51 (_ bv65526 16))) (= S2@52 (bvadd S2@51 (_ bv3 16))) $x1026)))
(let (($x1002 (= S2@51 S2@50)))
(let (($x1006 (and (bvuge S1@50 (_ bv1 16)) (= S1@51 (bvsub S1@50 (_ bv65535 16))) $x1002 (= S3@51 (bvadd S3@50 (_ bv1 16))))))
(let (($x1007 (= S3@51 S3@50)))
(let (($x1013 (and (bvuge S1@50 (_ bv10 16)) (= S1@51 (bvsub S1@50 (_ bv65526 16))) (= S2@51 (bvadd S2@50 (_ bv3 16))) $x1007)))
(let (($x983 (= S2@50 S2@49)))
(let (($x987 (and (bvuge S1@49 (_ bv1 16)) (= S1@50 (bvsub S1@49 (_ bv65535 16))) $x983 (= S3@50 (bvadd S3@49 (_ bv1 16))))))
(let (($x988 (= S3@50 S3@49)))
(let (($x994 (and (bvuge S1@49 (_ bv10 16)) (= S1@50 (bvsub S1@49 (_ bv65526 16))) (= S2@50 (bvadd S2@49 (_ bv3 16))) $x988)))
(let (($x964 (= S2@49 S2@48)))
(let (($x968 (and (bvuge S1@48 (_ bv1 16)) (= S1@49 (bvsub S1@48 (_ bv65535 16))) $x964 (= S3@49 (bvadd S3@48 (_ bv1 16))))))
(let (($x969 (= S3@49 S3@48)))
(let (($x975 (and (bvuge S1@48 (_ bv10 16)) (= S1@49 (bvsub S1@48 (_ bv65526 16))) (= S2@49 (bvadd S2@48 (_ bv3 16))) $x969)))
(let (($x945 (= S2@48 S2@47)))
(let (($x949 (and (bvuge S1@47 (_ bv1 16)) (= S1@48 (bvsub S1@47 (_ bv65535 16))) $x945 (= S3@48 (bvadd S3@47 (_ bv1 16))))))
(let (($x950 (= S3@48 S3@47)))
(let (($x956 (and (bvuge S1@47 (_ bv10 16)) (= S1@48 (bvsub S1@47 (_ bv65526 16))) (= S2@48 (bvadd S2@47 (_ bv3 16))) $x950)))
(let (($x926 (= S2@47 S2@46)))
(let (($x930 (and (bvuge S1@46 (_ bv1 16)) (= S1@47 (bvsub S1@46 (_ bv65535 16))) $x926 (= S3@47 (bvadd S3@46 (_ bv1 16))))))
(let (($x931 (= S3@47 S3@46)))
(let (($x937 (and (bvuge S1@46 (_ bv10 16)) (= S1@47 (bvsub S1@46 (_ bv65526 16))) (= S2@47 (bvadd S2@46 (_ bv3 16))) $x931)))
(let (($x907 (= S2@46 S2@45)))
(let (($x911 (and (bvuge S1@45 (_ bv1 16)) (= S1@46 (bvsub S1@45 (_ bv65535 16))) $x907 (= S3@46 (bvadd S3@45 (_ bv1 16))))))
(let (($x912 (= S3@46 S3@45)))
(let (($x918 (and (bvuge S1@45 (_ bv10 16)) (= S1@46 (bvsub S1@45 (_ bv65526 16))) (= S2@46 (bvadd S2@45 (_ bv3 16))) $x912)))
(let (($x888 (= S2@45 S2@44)))
(let (($x892 (and (bvuge S1@44 (_ bv1 16)) (= S1@45 (bvsub S1@44 (_ bv65535 16))) $x888 (= S3@45 (bvadd S3@44 (_ bv1 16))))))
(let (($x893 (= S3@45 S3@44)))
(let (($x899 (and (bvuge S1@44 (_ bv10 16)) (= S1@45 (bvsub S1@44 (_ bv65526 16))) (= S2@45 (bvadd S2@44 (_ bv3 16))) $x893)))
(let (($x869 (= S2@44 S2@43)))
(let (($x873 (and (bvuge S1@43 (_ bv1 16)) (= S1@44 (bvsub S1@43 (_ bv65535 16))) $x869 (= S3@44 (bvadd S3@43 (_ bv1 16))))))
(let (($x874 (= S3@44 S3@43)))
(let (($x880 (and (bvuge S1@43 (_ bv10 16)) (= S1@44 (bvsub S1@43 (_ bv65526 16))) (= S2@44 (bvadd S2@43 (_ bv3 16))) $x874)))
(let (($x850 (= S2@43 S2@42)))
(let (($x854 (and (bvuge S1@42 (_ bv1 16)) (= S1@43 (bvsub S1@42 (_ bv65535 16))) $x850 (= S3@43 (bvadd S3@42 (_ bv1 16))))))
(let (($x855 (= S3@43 S3@42)))
(let (($x861 (and (bvuge S1@42 (_ bv10 16)) (= S1@43 (bvsub S1@42 (_ bv65526 16))) (= S2@43 (bvadd S2@42 (_ bv3 16))) $x855)))
(let (($x831 (= S2@42 S2@41)))
(let (($x835 (and (bvuge S1@41 (_ bv1 16)) (= S1@42 (bvsub S1@41 (_ bv65535 16))) $x831 (= S3@42 (bvadd S3@41 (_ bv1 16))))))
(let (($x836 (= S3@42 S3@41)))
(let (($x842 (and (bvuge S1@41 (_ bv10 16)) (= S1@42 (bvsub S1@41 (_ bv65526 16))) (= S2@42 (bvadd S2@41 (_ bv3 16))) $x836)))
(let (($x812 (= S2@41 S2@40)))
(let (($x816 (and (bvuge S1@40 (_ bv1 16)) (= S1@41 (bvsub S1@40 (_ bv65535 16))) $x812 (= S3@41 (bvadd S3@40 (_ bv1 16))))))
(let (($x817 (= S3@41 S3@40)))
(let (($x823 (and (bvuge S1@40 (_ bv10 16)) (= S1@41 (bvsub S1@40 (_ bv65526 16))) (= S2@41 (bvadd S2@40 (_ bv3 16))) $x817)))
(let (($x793 (= S2@40 S2@39)))
(let (($x797 (and (bvuge S1@39 (_ bv1 16)) (= S1@40 (bvsub S1@39 (_ bv65535 16))) $x793 (= S3@40 (bvadd S3@39 (_ bv1 16))))))
(let (($x798 (= S3@40 S3@39)))
(let (($x804 (and (bvuge S1@39 (_ bv10 16)) (= S1@40 (bvsub S1@39 (_ bv65526 16))) (= S2@40 (bvadd S2@39 (_ bv3 16))) $x798)))
(let (($x774 (= S2@39 S2@38)))
(let (($x778 (and (bvuge S1@38 (_ bv1 16)) (= S1@39 (bvsub S1@38 (_ bv65535 16))) $x774 (= S3@39 (bvadd S3@38 (_ bv1 16))))))
(let (($x779 (= S3@39 S3@38)))
(let (($x785 (and (bvuge S1@38 (_ bv10 16)) (= S1@39 (bvsub S1@38 (_ bv65526 16))) (= S2@39 (bvadd S2@38 (_ bv3 16))) $x779)))
(let (($x755 (= S2@38 S2@37)))
(let (($x759 (and (bvuge S1@37 (_ bv1 16)) (= S1@38 (bvsub S1@37 (_ bv65535 16))) $x755 (= S3@38 (bvadd S3@37 (_ bv1 16))))))
(let (($x760 (= S3@38 S3@37)))
(let (($x766 (and (bvuge S1@37 (_ bv10 16)) (= S1@38 (bvsub S1@37 (_ bv65526 16))) (= S2@38 (bvadd S2@37 (_ bv3 16))) $x760)))
(let (($x736 (= S2@37 S2@36)))
(let (($x740 (and (bvuge S1@36 (_ bv1 16)) (= S1@37 (bvsub S1@36 (_ bv65535 16))) $x736 (= S3@37 (bvadd S3@36 (_ bv1 16))))))
(let (($x741 (= S3@37 S3@36)))
(let (($x747 (and (bvuge S1@36 (_ bv10 16)) (= S1@37 (bvsub S1@36 (_ bv65526 16))) (= S2@37 (bvadd S2@36 (_ bv3 16))) $x741)))
(let (($x717 (= S2@36 S2@35)))
(let (($x721 (and (bvuge S1@35 (_ bv1 16)) (= S1@36 (bvsub S1@35 (_ bv65535 16))) $x717 (= S3@36 (bvadd S3@35 (_ bv1 16))))))
(let (($x722 (= S3@36 S3@35)))
(let (($x728 (and (bvuge S1@35 (_ bv10 16)) (= S1@36 (bvsub S1@35 (_ bv65526 16))) (= S2@36 (bvadd S2@35 (_ bv3 16))) $x722)))
(let (($x698 (= S2@35 S2@34)))
(let (($x702 (and (bvuge S1@34 (_ bv1 16)) (= S1@35 (bvsub S1@34 (_ bv65535 16))) $x698 (= S3@35 (bvadd S3@34 (_ bv1 16))))))
(let (($x703 (= S3@35 S3@34)))
(let (($x709 (and (bvuge S1@34 (_ bv10 16)) (= S1@35 (bvsub S1@34 (_ bv65526 16))) (= S2@35 (bvadd S2@34 (_ bv3 16))) $x703)))
(let (($x679 (= S2@34 S2@33)))
(let (($x683 (and (bvuge S1@33 (_ bv1 16)) (= S1@34 (bvsub S1@33 (_ bv65535 16))) $x679 (= S3@34 (bvadd S3@33 (_ bv1 16))))))
(let (($x684 (= S3@34 S3@33)))
(let (($x690 (and (bvuge S1@33 (_ bv10 16)) (= S1@34 (bvsub S1@33 (_ bv65526 16))) (= S2@34 (bvadd S2@33 (_ bv3 16))) $x684)))
(let (($x660 (= S2@33 S2@32)))
(let (($x664 (and (bvuge S1@32 (_ bv1 16)) (= S1@33 (bvsub S1@32 (_ bv65535 16))) $x660 (= S3@33 (bvadd S3@32 (_ bv1 16))))))
(let (($x665 (= S3@33 S3@32)))
(let (($x671 (and (bvuge S1@32 (_ bv10 16)) (= S1@33 (bvsub S1@32 (_ bv65526 16))) (= S2@33 (bvadd S2@32 (_ bv3 16))) $x665)))
(let (($x641 (= S2@32 S2@31)))
(let (($x645 (and (bvuge S1@31 (_ bv1 16)) (= S1@32 (bvsub S1@31 (_ bv65535 16))) $x641 (= S3@32 (bvadd S3@31 (_ bv1 16))))))
(let (($x646 (= S3@32 S3@31)))
(let (($x652 (and (bvuge S1@31 (_ bv10 16)) (= S1@32 (bvsub S1@31 (_ bv65526 16))) (= S2@32 (bvadd S2@31 (_ bv3 16))) $x646)))
(let (($x622 (= S2@31 S2@30)))
(let (($x626 (and (bvuge S1@30 (_ bv1 16)) (= S1@31 (bvsub S1@30 (_ bv65535 16))) $x622 (= S3@31 (bvadd S3@30 (_ bv1 16))))))
(let (($x627 (= S3@31 S3@30)))
(let (($x633 (and (bvuge S1@30 (_ bv10 16)) (= S1@31 (bvsub S1@30 (_ bv65526 16))) (= S2@31 (bvadd S2@30 (_ bv3 16))) $x627)))
(let (($x603 (= S2@30 S2@29)))
(let (($x607 (and (bvuge S1@29 (_ bv1 16)) (= S1@30 (bvsub S1@29 (_ bv65535 16))) $x603 (= S3@30 (bvadd S3@29 (_ bv1 16))))))
(let (($x608 (= S3@30 S3@29)))
(let (($x614 (and (bvuge S1@29 (_ bv10 16)) (= S1@30 (bvsub S1@29 (_ bv65526 16))) (= S2@30 (bvadd S2@29 (_ bv3 16))) $x608)))
(let (($x584 (= S2@29 S2@28)))
(let (($x588 (and (bvuge S1@28 (_ bv1 16)) (= S1@29 (bvsub S1@28 (_ bv65535 16))) $x584 (= S3@29 (bvadd S3@28 (_ bv1 16))))))
(let (($x589 (= S3@29 S3@28)))
(let (($x595 (and (bvuge S1@28 (_ bv10 16)) (= S1@29 (bvsub S1@28 (_ bv65526 16))) (= S2@29 (bvadd S2@28 (_ bv3 16))) $x589)))
(let (($x565 (= S2@28 S2@27)))
(let (($x569 (and (bvuge S1@27 (_ bv1 16)) (= S1@28 (bvsub S1@27 (_ bv65535 16))) $x565 (= S3@28 (bvadd S3@27 (_ bv1 16))))))
(let (($x570 (= S3@28 S3@27)))
(let (($x576 (and (bvuge S1@27 (_ bv10 16)) (= S1@28 (bvsub S1@27 (_ bv65526 16))) (= S2@28 (bvadd S2@27 (_ bv3 16))) $x570)))
(let (($x546 (= S2@27 S2@26)))
(let (($x550 (and (bvuge S1@26 (_ bv1 16)) (= S1@27 (bvsub S1@26 (_ bv65535 16))) $x546 (= S3@27 (bvadd S3@26 (_ bv1 16))))))
(let (($x551 (= S3@27 S3@26)))
(let (($x557 (and (bvuge S1@26 (_ bv10 16)) (= S1@27 (bvsub S1@26 (_ bv65526 16))) (= S2@27 (bvadd S2@26 (_ bv3 16))) $x551)))
(let (($x527 (= S2@26 S2@25)))
(let (($x531 (and (bvuge S1@25 (_ bv1 16)) (= S1@26 (bvsub S1@25 (_ bv65535 16))) $x527 (= S3@26 (bvadd S3@25 (_ bv1 16))))))
(let (($x532 (= S3@26 S3@25)))
(let (($x538 (and (bvuge S1@25 (_ bv10 16)) (= S1@26 (bvsub S1@25 (_ bv65526 16))) (= S2@26 (bvadd S2@25 (_ bv3 16))) $x532)))
(let (($x508 (= S2@25 S2@24)))
(let (($x512 (and (bvuge S1@24 (_ bv1 16)) (= S1@25 (bvsub S1@24 (_ bv65535 16))) $x508 (= S3@25 (bvadd S3@24 (_ bv1 16))))))
(let (($x513 (= S3@25 S3@24)))
(let (($x519 (and (bvuge S1@24 (_ bv10 16)) (= S1@25 (bvsub S1@24 (_ bv65526 16))) (= S2@25 (bvadd S2@24 (_ bv3 16))) $x513)))
(let (($x489 (= S2@24 S2@23)))
(let (($x493 (and (bvuge S1@23 (_ bv1 16)) (= S1@24 (bvsub S1@23 (_ bv65535 16))) $x489 (= S3@24 (bvadd S3@23 (_ bv1 16))))))
(let (($x494 (= S3@24 S3@23)))
(let (($x500 (and (bvuge S1@23 (_ bv10 16)) (= S1@24 (bvsub S1@23 (_ bv65526 16))) (= S2@24 (bvadd S2@23 (_ bv3 16))) $x494)))
(let (($x470 (= S2@23 S2@22)))
(let (($x474 (and (bvuge S1@22 (_ bv1 16)) (= S1@23 (bvsub S1@22 (_ bv65535 16))) $x470 (= S3@23 (bvadd S3@22 (_ bv1 16))))))
(let (($x475 (= S3@23 S3@22)))
(let (($x481 (and (bvuge S1@22 (_ bv10 16)) (= S1@23 (bvsub S1@22 (_ bv65526 16))) (= S2@23 (bvadd S2@22 (_ bv3 16))) $x475)))
(let (($x451 (= S2@22 S2@21)))
(let (($x455 (and (bvuge S1@21 (_ bv1 16)) (= S1@22 (bvsub S1@21 (_ bv65535 16))) $x451 (= S3@22 (bvadd S3@21 (_ bv1 16))))))
(let (($x456 (= S3@22 S3@21)))
(let (($x462 (and (bvuge S1@21 (_ bv10 16)) (= S1@22 (bvsub S1@21 (_ bv65526 16))) (= S2@22 (bvadd S2@21 (_ bv3 16))) $x456)))
(let (($x432 (= S2@21 S2@20)))
(let (($x436 (and (bvuge S1@20 (_ bv1 16)) (= S1@21 (bvsub S1@20 (_ bv65535 16))) $x432 (= S3@21 (bvadd S3@20 (_ bv1 16))))))
(let (($x437 (= S3@21 S3@20)))
(let (($x443 (and (bvuge S1@20 (_ bv10 16)) (= S1@21 (bvsub S1@20 (_ bv65526 16))) (= S2@21 (bvadd S2@20 (_ bv3 16))) $x437)))
(let (($x413 (= S2@20 S2@19)))
(let (($x417 (and (bvuge S1@19 (_ bv1 16)) (= S1@20 (bvsub S1@19 (_ bv65535 16))) $x413 (= S3@20 (bvadd S3@19 (_ bv1 16))))))
(let (($x418 (= S3@20 S3@19)))
(let (($x424 (and (bvuge S1@19 (_ bv10 16)) (= S1@20 (bvsub S1@19 (_ bv65526 16))) (= S2@20 (bvadd S2@19 (_ bv3 16))) $x418)))
(let (($x394 (= S2@19 S2@18)))
(let (($x398 (and (bvuge S1@18 (_ bv1 16)) (= S1@19 (bvsub S1@18 (_ bv65535 16))) $x394 (= S3@19 (bvadd S3@18 (_ bv1 16))))))
(let (($x399 (= S3@19 S3@18)))
(let (($x405 (and (bvuge S1@18 (_ bv10 16)) (= S1@19 (bvsub S1@18 (_ bv65526 16))) (= S2@19 (bvadd S2@18 (_ bv3 16))) $x399)))
(let (($x375 (= S2@18 S2@17)))
(let (($x379 (and (bvuge S1@17 (_ bv1 16)) (= S1@18 (bvsub S1@17 (_ bv65535 16))) $x375 (= S3@18 (bvadd S3@17 (_ bv1 16))))))
(let (($x380 (= S3@18 S3@17)))
(let (($x386 (and (bvuge S1@17 (_ bv10 16)) (= S1@18 (bvsub S1@17 (_ bv65526 16))) (= S2@18 (bvadd S2@17 (_ bv3 16))) $x380)))
(let (($x356 (= S2@17 S2@16)))
(let (($x360 (and (bvuge S1@16 (_ bv1 16)) (= S1@17 (bvsub S1@16 (_ bv65535 16))) $x356 (= S3@17 (bvadd S3@16 (_ bv1 16))))))
(let (($x361 (= S3@17 S3@16)))
(let (($x367 (and (bvuge S1@16 (_ bv10 16)) (= S1@17 (bvsub S1@16 (_ bv65526 16))) (= S2@17 (bvadd S2@16 (_ bv3 16))) $x361)))
(let (($x337 (= S2@16 S2@15)))
(let (($x341 (and (bvuge S1@15 (_ bv1 16)) (= S1@16 (bvsub S1@15 (_ bv65535 16))) $x337 (= S3@16 (bvadd S3@15 (_ bv1 16))))))
(let (($x342 (= S3@16 S3@15)))
(let (($x348 (and (bvuge S1@15 (_ bv10 16)) (= S1@16 (bvsub S1@15 (_ bv65526 16))) (= S2@16 (bvadd S2@15 (_ bv3 16))) $x342)))
(let (($x318 (= S2@15 S2@14)))
(let (($x322 (and (bvuge S1@14 (_ bv1 16)) (= S1@15 (bvsub S1@14 (_ bv65535 16))) $x318 (= S3@15 (bvadd S3@14 (_ bv1 16))))))
(let (($x323 (= S3@15 S3@14)))
(let (($x329 (and (bvuge S1@14 (_ bv10 16)) (= S1@15 (bvsub S1@14 (_ bv65526 16))) (= S2@15 (bvadd S2@14 (_ bv3 16))) $x323)))
(let (($x299 (= S2@14 S2@13)))
(let (($x303 (and (bvuge S1@13 (_ bv1 16)) (= S1@14 (bvsub S1@13 (_ bv65535 16))) $x299 (= S3@14 (bvadd S3@13 (_ bv1 16))))))
(let (($x304 (= S3@14 S3@13)))
(let (($x310 (and (bvuge S1@13 (_ bv10 16)) (= S1@14 (bvsub S1@13 (_ bv65526 16))) (= S2@14 (bvadd S2@13 (_ bv3 16))) $x304)))
(let (($x280 (= S2@13 S2@12)))
(let (($x284 (and (bvuge S1@12 (_ bv1 16)) (= S1@13 (bvsub S1@12 (_ bv65535 16))) $x280 (= S3@13 (bvadd S3@12 (_ bv1 16))))))
(let (($x285 (= S3@13 S3@12)))
(let (($x291 (and (bvuge S1@12 (_ bv10 16)) (= S1@13 (bvsub S1@12 (_ bv65526 16))) (= S2@13 (bvadd S2@12 (_ bv3 16))) $x285)))
(let (($x261 (= S2@12 S2@11)))
(let (($x265 (and (bvuge S1@11 (_ bv1 16)) (= S1@12 (bvsub S1@11 (_ bv65535 16))) $x261 (= S3@12 (bvadd S3@11 (_ bv1 16))))))
(let (($x266 (= S3@12 S3@11)))
(let (($x272 (and (bvuge S1@11 (_ bv10 16)) (= S1@12 (bvsub S1@11 (_ bv65526 16))) (= S2@12 (bvadd S2@11 (_ bv3 16))) $x266)))
(let (($x242 (= S2@11 S2@10)))
(let (($x246 (and (bvuge S1@10 (_ bv1 16)) (= S1@11 (bvsub S1@10 (_ bv65535 16))) $x242 (= S3@11 (bvadd S3@10 (_ bv1 16))))))
(let (($x247 (= S3@11 S3@10)))
(let (($x253 (and (bvuge S1@10 (_ bv10 16)) (= S1@11 (bvsub S1@10 (_ bv65526 16))) (= S2@11 (bvadd S2@10 (_ bv3 16))) $x247)))
(let (($x223 (= S2@10 S2@9)))
(let (($x227 (and (bvuge S1@9 (_ bv1 16)) (= S1@10 (bvsub S1@9 (_ bv65535 16))) $x223 (= S3@10 (bvadd S3@9 (_ bv1 16))))))
(let (($x228 (= S3@10 S3@9)))
(let (($x234 (and (bvuge S1@9 (_ bv10 16)) (= S1@10 (bvsub S1@9 (_ bv65526 16))) (= S2@10 (bvadd S2@9 (_ bv3 16))) $x228)))
(let (($x204 (= S2@9 S2@8)))
(let (($x208 (and (bvuge S1@8 (_ bv1 16)) (= S1@9 (bvsub S1@8 (_ bv65535 16))) $x204 (= S3@9 (bvadd S3@8 (_ bv1 16))))))
(let (($x209 (= S3@9 S3@8)))
(let (($x215 (and (bvuge S1@8 (_ bv10 16)) (= S1@9 (bvsub S1@8 (_ bv65526 16))) (= S2@9 (bvadd S2@8 (_ bv3 16))) $x209)))
(let (($x185 (= S2@8 S2@7)))
(let (($x189 (and (bvuge S1@7 (_ bv1 16)) (= S1@8 (bvsub S1@7 (_ bv65535 16))) $x185 (= S3@8 (bvadd S3@7 (_ bv1 16))))))
(let (($x190 (= S3@8 S3@7)))
(let (($x196 (and (bvuge S1@7 (_ bv10 16)) (= S1@8 (bvsub S1@7 (_ bv65526 16))) (= S2@8 (bvadd S2@7 (_ bv3 16))) $x190)))
(let (($x166 (= S2@7 S2@6)))
(let (($x170 (and (bvuge S1@6 (_ bv1 16)) (= S1@7 (bvsub S1@6 (_ bv65535 16))) $x166 (= S3@7 (bvadd S3@6 (_ bv1 16))))))
(let (($x171 (= S3@7 S3@6)))
(let (($x177 (and (bvuge S1@6 (_ bv10 16)) (= S1@7 (bvsub S1@6 (_ bv65526 16))) (= S2@7 (bvadd S2@6 (_ bv3 16))) $x171)))
(let (($x147 (= S2@6 S2@5)))
(let (($x151 (and (bvuge S1@5 (_ bv1 16)) (= S1@6 (bvsub S1@5 (_ bv65535 16))) $x147 (= S3@6 (bvadd S3@5 (_ bv1 16))))))
(let (($x152 (= S3@6 S3@5)))
(let (($x158 (and (bvuge S1@5 (_ bv10 16)) (= S1@6 (bvsub S1@5 (_ bv65526 16))) (= S2@6 (bvadd S2@5 (_ bv3 16))) $x152)))
(let (($x128 (= S2@5 S2@4)))
(let (($x132 (and (bvuge S1@4 (_ bv1 16)) (= S1@5 (bvsub S1@4 (_ bv65535 16))) $x128 (= S3@5 (bvadd S3@4 (_ bv1 16))))))
(let (($x133 (= S3@5 S3@4)))
(let (($x139 (and (bvuge S1@4 (_ bv10 16)) (= S1@5 (bvsub S1@4 (_ bv65526 16))) (= S2@5 (bvadd S2@4 (_ bv3 16))) $x133)))
(let (($x109 (= S2@4 S2@3)))
(let (($x113 (and (bvuge S1@3 (_ bv1 16)) (= S1@4 (bvsub S1@3 (_ bv65535 16))) $x109 (= S3@4 (bvadd S3@3 (_ bv1 16))))))
(let (($x114 (= S3@4 S3@3)))
(let (($x120 (and (bvuge S1@3 (_ bv10 16)) (= S1@4 (bvsub S1@3 (_ bv65526 16))) (= S2@4 (bvadd S2@3 (_ bv3 16))) $x114)))
(let (($x90 (= S2@3 S2@2)))
(let (($x94 (and (bvuge S1@2 (_ bv1 16)) (= S1@3 (bvsub S1@2 (_ bv65535 16))) $x90 (= S3@3 (bvadd S3@2 (_ bv1 16))))))
(let (($x95 (= S3@3 S3@2)))
(let (($x101 (and (bvuge S1@2 (_ bv10 16)) (= S1@3 (bvsub S1@2 (_ bv65526 16))) (= S2@3 (bvadd S2@2 (_ bv3 16))) $x95)))
(let (($x71 (= S2@2 S2@1)))
(let (($x75 (and (bvuge S1@1 (_ bv1 16)) (= S1@2 (bvsub S1@1 (_ bv65535 16))) $x71 (= S3@2 (bvadd S3@1 (_ bv1 16))))))
(let (($x76 (= S3@2 S3@1)))
(let (($x82 (and (bvuge S1@1 (_ bv10 16)) (= S1@2 (bvsub S1@1 (_ bv65526 16))) (= S2@2 (bvadd S2@1 (_ bv3 16))) $x76)))
(let (($x52 (= S2@1 S2@0)))
(let (($x56 (and (bvuge S1@0 (_ bv1 16)) (= S1@1 (bvsub S1@0 (_ bv65535 16))) $x52 (= S3@1 (bvadd S3@0 (_ bv1 16))))))
(let (($x57 (= S3@1 S3@0)))
(let (($x63 (and (bvuge S1@0 (_ bv10 16)) (= S1@1 (bvsub S1@0 (_ bv65526 16))) (= S2@1 (bvadd S2@0 (_ bv3 16))) $x57)))
(let (($x65 (and (and (= S1@0 (_ bv100 16)) (= S2@0 (_ bv200 16)) (= S3@0 (_ bv300 16))) (or $x63 $x56))))
(let (($x141 (and (and (and (and $x65 (or $x82 $x75)) (or $x101 $x94)) (or $x120 $x113)) (or $x139 $x132))))
(let (($x217 (and (and (and (and $x141 (or $x158 $x151)) (or $x177 $x170)) (or $x196 $x189)) (or $x215 $x208))))
(let (($x293 (and (and (and (and $x217 (or $x234 $x227)) (or $x253 $x246)) (or $x272 $x265)) (or $x291 $x284))))
(let (($x369 (and (and (and (and $x293 (or $x310 $x303)) (or $x329 $x322)) (or $x348 $x341)) (or $x367 $x360))))
(let (($x445 (and (and (and (and $x369 (or $x386 $x379)) (or $x405 $x398)) (or $x424 $x417)) (or $x443 $x436))))
(let (($x521 (and (and (and (and $x445 (or $x462 $x455)) (or $x481 $x474)) (or $x500 $x493)) (or $x519 $x512))))
(let (($x597 (and (and (and (and $x521 (or $x538 $x531)) (or $x557 $x550)) (or $x576 $x569)) (or $x595 $x588))))
(let (($x673 (and (and (and (and $x597 (or $x614 $x607)) (or $x633 $x626)) (or $x652 $x645)) (or $x671 $x664))))
(let (($x749 (and (and (and (and $x673 (or $x690 $x683)) (or $x709 $x702)) (or $x728 $x721)) (or $x747 $x740))))
(let (($x825 (and (and (and (and $x749 (or $x766 $x759)) (or $x785 $x778)) (or $x804 $x797)) (or $x823 $x816))))
(let (($x901 (and (and (and (and $x825 (or $x842 $x835)) (or $x861 $x854)) (or $x880 $x873)) (or $x899 $x892))))
(let (($x977 (and (and (and (and $x901 (or $x918 $x911)) (or $x937 $x930)) (or $x956 $x949)) (or $x975 $x968))))
(let (($x1053 (and (and (and (and $x977 (or $x994 $x987)) (or $x1013 $x1006)) (or $x1032 $x1025)) (or $x1051 $x1044))))
(let (($x1129 (and (and (and (and $x1053 (or $x1070 $x1063)) (or $x1089 $x1082)) (or $x1108 $x1101)) (or $x1127 $x1120))))
(and (and (and (and $x1129 (or $x1146 $x1139)) (or $x1165 $x1158)) (or $x1184 $x1177)) $x1190))))))))))))))))))))))))))))))))))))))))))))))))))))))))))))))))))))))))))))))))))))))))))))))))))))))))))))))))))))))))))))))))))))))))))))))))))))))))))))))))))))))))))))))))))))))))))))))))))))))))))))))))))))))))))))))))))))))))))))))))))))))))))))))))))
(check-sat)
